30
7 4 3
10 1 5
11 2 5
11 7 8
12 5 7
12 11 3
13 0 10
13 3 1
14 7 7
15 0 8
15 2 6
18 10 1
19 1 7
19 3 1
19 14 7
20 5 6
21 14 3
22 0 6
22 9 5
22 12 7
22 13 5
22 17 10
22 21 7
23 0 7
23 3 9
23 13 4
24 1 1
24 3 5
24 8 10
25 8 6
26 20 5
26 25 2
27 9 7
27 12 5
28 6 9
28 8 9
28 22 9
29 14 9
